c seed 33004414
c width 16
c scramble 0
c layers 3
c equalities 0
c ands 0
c xors3 0
c xors4 0
c layer[0] = [1..16] w=16 v=16 c=57 r=3.56 q=0
c layer[1] = [17..32] w=16 v=32 c=103 r=3.22 q=0
c layer[2] = [33..42] w=10 v=26 c=87 r=3.35 q=0
p cnf 42 247
-8 -13 5 3 0
6 -15 1 2 -7 10 -11 -5 0
16 14 -10 13 0
8 -3 15 -9 7 -16 0
-12 -4 -2 -1 9 0
11 12 -14 0
4 -6 13 -16 -11 0
-12 -4 -10 14 7 -3 0
10 5 1 0
1 13 -10 14 0
-11 -2 7 -13 0
-15 14 0
-12 -3 7 -10 0
-10 -11 -12 9 14 0
15 6 -8 0
11 -16 -4 1 14 5 10 8 0
-2 -16 -14 -3 4 9 0
-2 -14 -3 -9 1 10 0
3 -11 9 12 -6 13 15 0
4 1 -13 0
15 -1 10 -7 0
-15 3 -2 0
6 -12 5 10 0
-6 10 -14 2 15 7 -8 -1 3 0
1 6 -7 -11 -16 13 0
-6 7 1 2 3 15 11 0
2 12 4 16 0
7 -12 1 -11 10 -8 0
-10 2 13 -8 -14 -12 0
12 -10 4 2 15 1 0
-6 -7 -15 -5 3 0
14 7 16 -12 -1 0
10 -3 16 0
10 -11 12 9 -3 8 5 -16 4 0
2 9 16 -4 8 0
4 -10 13 0
-6 7 13 -14 -9 -5 1 15 0
-5 -15 12 -14 10 3 0
-9 11 8 -7 -15 4 0
-7 -12 -4 -10 0
-4 -5 -11 9 0
16 -13 7 0
13 -12 14 -6 2 16 8 0
6 9 -3 -14 0
-7 -15 -2 -11 4 -8 0
8 16 -3 0
2 6 -3 -16 -7 0
-5 -15 -4 0
-9 12 3 1 0
9 10 -14 7 0
13 8 14 12 9 0
-5 15 4 0
12 6 4 0
3 4 -12 7 10 -15 0
-2 -12 6 0
2 4 11 0
-9 11 8 1 5 14 0
26 22 4 -14 -15 0
-32 -16 7 0
-1 -19 -30 23 -17 6 0
-3 -20 -25 -22 0
11 31 -21 -15 29 18 0
21 11 -8 1 0
-5 27 13 -12 24 0
25 -4 -2 17 -24 0
-26 19 -10 28 0
-2 14 -23 -5 0
-18 16 32 -27 30 0
20 -31 -29 -28 3 0
6 -29 21 0
-15 16 -22 -13 -17 0
32 25 -18 21 0
10 -28 13 0
8 29 -14 -28 9 -4 0
17 23 26 12 0
7 -32 -15 -11 31 0
9 18 -14 -28 21 0
16 26 8 0
25 -17 -19 0
17 2 28 0
3 -15 16 12 -25 19 0
-32 4 24 17 -15 -22 -29 -6 0
16 -29 5 -8 -15 0
7 -18 -21 -11 0
15 10 8 13 -3 0
-8 25 -13 0
-13 -9 -5 0
-10 21 -22 -29 -5 0
-29 -18 -11 0
13 16 -5 -32 0
-29 -14 27 1 0
10 22 -20 0
-20 -19 28 0
8 -28 27 18 -16 -9 32 -1 2 29 17 -6 -26 -13 11 0
27 30 -11 0
16 28 -25 -21 12 -14 10 0
28 -27 -6 -29 14 9 -22 -32 17 0
2 -29 7 0
-31 -30 6 0
18 -10 -21 -6 12 -16 1 -17 -26 -4 0
23 11 -16 12 -27 0
12 21 -25 0
-20 32 -28 27 26 0
3 7 -31 -24 11 0
17 -19 16 7 0
-31 14 -5 15 9 0
-13 23 11 -9 0
-6 -17 -30 12 3 0
10 8 -14 3 20 -13 -31 0
15 28 18 1 -6 0
-29 16 -12 0
-20 -24 0
19 -1 17 20 -16 9 0
-23 -15 -17 -19 0
9 -30 -19 -2 0
-32 -6 -10 -23 -22 -30 0
4 9 8 0
19 -8 -1 23 12 0
4 23 32 0
-18 9 -12 6 -4 15 25 -10 19 -31 -2 -28 0
11 31 -3 7 5 19 -10 12 0
-21 15 7 30 -18 -20 0
12 -28 6 -11 0
-13 -4 -17 18 0
-27 2 30 32 8 -5 0
-19 -1 -11 5 6 0
-26 25 14 32 -17 -15 0
-22 24 -17 -15 3 -31 0
-17 -10 -12 9 0
6 -8 -28 0
-9 25 2 -14 6 -12 16 27 0
20 21 24 26 1 17 -23 0
-3 6 10 0
-3 13 -8 -16 0
25 -11 22 -30 -32 18 0
27 -12 30 0
21 30 -11 27 9 3 12 -32 0
19 -26 -30 0
21 -23 -14 24 18 0
-24 11 -18 -30 3 10 31 0
14 -17 8 18 3 -16 0
22 5 3 0
15 2 -19 10 0
-24 -29 16 13 23 1 2 0
-27 20 7 0
16 -8 -6 -19 0
-30 -31 18 0
2 24 8 0
-9 31 1 -18 0
13 27 12 -20 0
-21 -14 24 -17 10 7 0
5 -18 -1 0
25 29 -14 -13 4 -10 -23 28 7 3 -11 26 -22 20 0
-8 24 23 -21 -26 4 15 29 -31 22 -13 20 1 -28 32 0
11 -25 30 0
-20 29 -2 -26 0
-8 -32 -13 7 0
-1 19 -15 27 -5 6 -29 -3 0
24 -17 30 27 0
1 -5 10 -22 0
31 -4 -37 17 0
7 -8 34 27 0
41 -31 27 0
1 9 -3 0
36 -31 -18 -40 -42 29 0
-36 -41 -11 0
-33 42 29 -22 37 -35 0
40 14 38 33 -2 24 39 -34 0
-18 -39 -13 0
16 -4 35 -25 0
-38 -8 15 39 0
-18 40 11 36 4 0
-38 -30 26 -10 3 17 0
-25 24 33 36 19 4 0
8 -37 -38 0
-3 -7 28 42 36 0
33 -17 22 -38 25 26 0
36 17 5 -33 0
-25 -24 -5 0
-7 -39 4 0
7 23 -33 -37 38 0
40 39 36 34 26 -28 38 24 0
23 -5 40 42 7 0
-9 29 -38 0
35 -39 40 0
-27 10 -11 -13 -24 0
40 -21 -41 12 -23 36 7 0
-41 -40 -35 0
40 4 -36 0
34 4 -3 36 -38 0
-39 -36 -11 38 0
41 -32 -29 -24 26 -36 34 -28 0
-1 -31 -36 -13 32 11 -38 0
-3 28 30 38 -39 -34 0
33 35 -12 -27 0
28 -2 32 27 0
29 -37 -1 0
35 40 31 29 38 -7 4 0
25 -37 0
-35 -41 -42 38 7 0
29 -41 38 0
-14 -27 -31 0
35 -33 37 39 -4 0
35 -41 -14 -38 -19 0
25 -33 -34 -36 -11 0
-40 39 38 -36 35 -18 -42 -34 0
-19 37 -40 11 0
31 -38 -32 0
-40 -21 -37 -41 24 20 11 -1 -42 0
37 -21 15 1 0
-35 -38 37 -30 32 0
6 -20 39 -30 -14 -27 0
-37 -41 19 -39 -20 13 36 -34 -42 -33 -16 3 0
36 -20 -31 0
-18 41 -29 0
39 36 -6 0
-3 33 -32 0
-24 29 -31 0
33 -27 35 0
19 13 38 12 0
-37 -6 34 0
35 -40 34 36 10 0
-6 -34 -40 39 0
39 -24 18 0
30 -29 -24 11 0
28 33 -37 0
-33 35 -39 0
-18 40 33 -32 -38 37 -30 -15 0
35 -25 -27 21 -12 0
24 39 8 -38 40 30 -26 0
19 -38 -41 -4 0
14 -38 37 -34 0
-7 26 -1 35 -8 0
-1 -36 40 35 -19 13 0
-41 31 -40 0
8 38 28 0
11 41 4 -37 -6 35 0
-36 27 42 0
-42 -18 37 15 34 2 0
42 18 -38 10 -35 -24 3 0
17 34 -39 18 33 0
38 5 29 31 23 0
-33 35 -39 0
12 -21 -1 -37 -9 -36 35 -41 0
-1 -4 -23 28 38 41 22 37 10 -8 34 0
-10 26 17 -25 0
39 -26 -37 -12 38 -25 0
