c seed 621983124
c width 19
c scramble 1
c layers 3
c equalities 0
c ands 0
c xors3 0
c xors4 0
c layer[0] = [1..18] w=18 v=18 c=71 r=3.94 q=0
c layer[1] = [19..35] w=17 v=35 c=109 r=3.11 q=0
c layer[2] = [36..46] w=11 v=28 c=90 r=3.21 q=0
p cnf 46 270
17 -4 8 10 2 -5 9 11 13 0
4 -11 -18 5 1 0
-2 14 -13 0
12 18 16 -8 -6 3 0
-10 15 -16 -12 6 0
-9 -14 -3 0
-15 -7 -1 -17 0
7 -15 4 0
-9 -14 -1 5 -12 0
14 12 1 -18 13 0
-12 3 1 0
4 -15 1 -17 10 0
8 16 0
1 5 16 -3 -8 0
-6 -7 -9 0
-7 -11 18 5 -2 0
-4 18 9 6 10 0
2 13 -9 1 7 0
10 6 -9 0
-6 -15 3 -7 -9 0
9 5 -14 3 -10 0
5 -12 15 7 0
18 3 -5 16 0
-8 -6 12 0
6 14 -18 -5 3 13 -17 -8 9 12 0
-3 17 14 0
-6 5 8 -7 -14 -2 0
5 12 -1 18 0
-4 1 14 13 16 7 10 0
13 -6 -10 8 0
16 2 -15 -3 0
-3 5 -14 4 12 -15 17 0
2 6 7 -18 0
-10 -6 12 -5 -3 11 -2 -7 16 0
13 15 4 -7 10 0
-6 2 17 18 3 -1 12 0
7 10 -5 -4 0
7 9 -2 -6 -18 -3 4 13 5 0
-2 3 -17 0
11 -2 -1 -16 -10 -18 12 7 0
7 -14 16 -18 0
-11 8 16 0
6 11 -18 -4 -2 0
12 16 5 -4 -6 -7 0
18 -9 15 -16 17 0
-15 2 3 -9 4 10 -16 0
-15 17 14 -4 1 9 0
-11 10 -15 13 -2 18 0
13 9 -2 0
13 -14 -15 11 8 10 -9 0
5 -9 -17 14 -18 -7 -13 0
-4 -2 -3 17 -11 -15 0
-6 8 16 -3 -9 0
-5 -2 15 0
17 8 -3 0
13 -6 -5 9 0
5 9 4 -6 -18 0
4 -2 -3 -7 -9 6 -14 -15 0
1 6 12 0
8 -13 -18 0
18 1 -6 11 0
17 -6 -15 10 -18 0
11 -5 -2 0
-2 -12 8 -9 0
1 -9 -2 0
2 10 -9 0
14 17 -12 -6 -16 11 0
-9 -4 11 -13 0
-13 -10 15 -2 0
13 7 10 -5 0
-9 -16 14 0
-24 17 30 2 -25 5 0
15 10 -33 35 -4 -26 0
14 6 3 -7 -16 26 0
33 -22 -34 -29 0
-9 29 32 0
-30 6 17 0
20 -23 -5 -32 21 -28 27 25 -15 -12 0
-6 2 -8 0
18 -19 13 0
-3 -27 31 0
-12 34 2 -35 -13 0
22 -20 14 -7 17 -31 -21 -9 0
-16 23 -9 0
13 -12 16 28 0
11 19 -10 0
24 26 -31 0
-32 -29 22 -21 -30 8 -23 -15 24 0
-8 13 2 -14 24 0
8 31 18 14 34 19 -24 -5 0
-25 -5 11 0
7 -33 19 0
-20 -12 27 0
27 21 -29 0
-31 15 20 -3 0
-5 22 26 0
33 -3 31 0
5 1 27 23 14 0
-26 32 19 0
-29 -24 -34 -8 0
1 -29 -35 0
24 -22 17 0
20 -28 13 10 -31 14 15 -1 -6 0
-33 28 24 0
-29 5 17 8 -25 0
27 -14 -6 0
-24 6 12 -16 -3 13 11 0
11 -24 -27 -13 0
1 -20 -16 0
-27 -22 -3 0
18 -15 19 24 0
-25 -7 24 0
32 6 -4 -24 0
18 -35 -19 -32 -14 0
1 25 -7 -15 -13 -30 0
-25 35 22 33 -13 0
-12 -7 17 0
29 1 -30 -14 -2 -11 0
13 20 -7 26 6 0
-35 22 11 -27 -26 0
17 -12 -25 -29 0
13 -11 -34 6 -30 0
28 11 10 2 0
-23 -31 28 14 0
16 -28 -21 -1 -29 4 -18 -33 11 -2 3 30 -13 0
3 4 -2 -28 0
-29 -17 10 -11 -5 -6 27 0
-31 34 -6 -4 0
-6 35 -16 -24 -14 29 0
-1 27 33 16 -12 7 -2 -8 -31 0
-20 8 33 5 -16 -2 0
26 11 -13 27 16 0
-13 -15 24 -26 0
13 -8 21 3 12 -29 34 0
26 16 1 0
-25 15 13 -4 0
10 26 3 0
19 -7 -2 -20 30 -15 16 0
10 -14 -24 9 -28 18 12 19 -15 0
-10 24 -18 8 0
-22 15 19 -11 27 0
-25 -18 -12 -27 0
1 33 22 0
-3 -21 -27 0
28 10 -31 -32 0
19 18 -15 27 3 -23 8 -22 0
13 35 0
-23 5 18 0
-27 3 21 0
13 8 2 0
-4 -35 34 0
-21 -14 26 34 0
-22 -25 6 16 4 -21 -5 -15 0
-22 26 10 0
-4 -19 -11 -32 13 33 12 25 -35 26 15 0
5 29 -19 0
-5 4 -24 0
-17 4 21 -3 0
23 26 -3 -35 30 12 0
24 -3 35 -34 -8 0
28 -6 -31 -7 20 -10 -34 -5 14 -33 -18 -9 16 -21 0
6 -29 12 0
-35 14 -34 0
-15 -11 7 -35 0
18 11 -21 0
-18 29 17 0
-6 -15 -17 0
10 31 1 0
-27 -6 -5 0
35 -1 -20 0
33 -29 -19 0
-8 -1 -27 21 -22 -16 -13 17 0
11 -12 -20 -25 0
3 28 -34 13 -20 18 27 16 29 -11 6 0
-4 -3 6 -16 35 10 18 -33 -22 28 0
10 14 29 16 13 0
15 3 10 32 5 35 19 27 8 33 0
33 23 -30 -8 29 26 17 -19 10 -35 34 0
-17 -18 14 16 -12 10 0
-22 16 26 0
19 40 -36 23 0
-42 44 45 43 0
-33 30 -13 23 0
-40 -37 -46 0
36 37 41 -39 -38 0
46 -41 39 0
-17 -43 38 0
-13 42 -3 35 8 31 0
7 -45 34 24 0
-44 7 29 46 0
-46 37 2 0
-43 42 39 -46 -14 0
-43 -1 31 38 -42 0
36 -41 -21 0
12 -38 -22 40 -42 -44 0
-15 -6 -2 0
-30 42 38 0
46 -36 40 0
-23 -25 33 -11 0
-40 22 17 41 0
42 13 43 0
46 -41 37 1 0
-43 -46 34 -40 0
23 44 -26 25 -1 -13 -40 41 0
40 39 -28 -36 0
41 -39 -26 7 0
46 34 38 0
-12 8 -41 0
-15 21 30 0
41 42 -28 -6 7 0
-38 43 -42 0
10 -27 18 -45 1 -46 -40 41 -23 32 0
-45 38 -37 -10 -19 -28 36 -40 0
45 43 -17 0
43 -24 -25 18 -37 38 31 44 29 -32 5 -19 0
11 -35 -40 -37 6 20 15 -36 0
-40 -9 -27 -20 0
33 40 -31 -44 -38 0
43 -10 40 32 44 0
38 -35 -30 0
-12 46 -4 45 -42 7 -40 -35 2 0
-31 -11 -39 -21 35 43 40 -28 0
25 41 46 0
-29 18 38 43 0
-42 -36 -41 6 0
-35 -38 -40 37 0
-17 -35 31 -40 -44 0
38 -45 37 25 -2 0
-39 -3 -26 36 -24 -45 -11 0
46 -31 14 0
45 7 -20 -36 38 -42 -16 -21 -35 39 0
-44 -6 -41 0
18 33 29 10 0
-40 -46 18 37 0
40 38 10 -14 -37 21 39 -8 0
1 41 0
-12 -36 -23 0
14 46 41 16 38 0
-44 -41 -38 40 0
38 40 -21 45 39 0
-39 -29 18 0
32 24 -28 44 0
33 -15 37 36 43 -9 5 0
-28 -37 -44 26 0
-40 2 3 -4 0
-39 -16 -3 27 10 44 -40 13 0
42 -18 -36 8 0
41 -22 15 -11 0
35 -45 43 0
42 37 38 0
30 40 35 -36 0
-22 21 13 -42 -27 -46 0
-36 34 1 0
10 21 22 0
-11 -14 -7 -10 0
-41 43 8 0
20 44 -38 -7 0
-17 42 31 19 0
41 39 13 0
22 36 -16 0
-30 -38 -37 36 -12 45 2 -46 -16 39 -17 44 0
11 27 37 38 3 -16 -43 0
21 5 -22 0
37 45 10 38 33 0
-36 43 -38 5 13 0
31 -10 -18 -16 -42 -38 33 46 43 0
31 -46 -18 -7 -2 0
38 45 -46 0
41 26 45 0
37 40 -44 -36 8 -13 27 -38 -42 46 28 0
