c seed 898390058
c width 18
c scramble -1
c layers 3
c equalities 0
c ands 0
c xors3 0
c xors4 0
c layer[0] = [1..14] w=14 v=14 c=46 r=3.29 q=0
c layer[1] = [15..26] w=12 v=26 c=78 r=3.00 q=0
c layer[2] = [27..41] w=15 v=27 c=87 r=3.22 q=0
p cnf 41 211
4 -3 -2 12 6 14 -5 0
8 9 -10 -11 3 -12 1 0
-6 10 -1 0
-4 11 -7 0
-14 13 2 0
7 -13 -8 -9 5 10 0
-10 -14 6 0
-12 -7 10 0
9 8 4 0
3 -14 -1 0
-4 3 9 6 0
1 -8 -9 6 0
-9 -11 5 14 0
14 -4 -5 -13 -11 0
1 -5 -7 2 0
-11 6 -2 14 13 0
9 3 14 0
14 -11 0
-9 -14 10 4 0
-4 11 -5 0
-3 -1 11 -13 5 10 -4 -12 6 -2 -8 -9 0
-4 -3 6 -2 1 -9 -10 0
-1 -6 11 0
4 5 7 0
-2 14 1 0
11 3 -14 0
-7 1 5 2 0
5 -12 3 14 11 0
-9 14 -4 -8 0
10 -1 6 0
-1 5 12 -11 -9 0
-6 14 5 0
-9 -7 0
-13 -12 7 0
-8 -14 -6 13 2 -5 -9 0
-4 3 1 0
-13 12 5 10 0
-7 -3 -8 0
11 -12 -13 4 -14 0
-9 -1 -5 -10 0
-3 13 -11 5 -4 1 0
-14 7 11 0
-8 10 -13 -9 0
10 -1 13 -7 -12 0
-11 8 7 0
-14 -9 12 0
19 -8 11 -12 9 13 18 0
-26 17 -8 -24 0
24 9 26 10 -20 0
-17 -3 10 11 -5 -9 20 15 0
-15 -1 16 -3 21 0
-2 13 -19 22 -21 -7 0
-22 -25 11 -16 23 -18 0
-23 7 4 25 -20 6 21 3 15 18 -19 0
-13 -24 -21 0
-24 26 9 -18 0
-9 -23 -19 0
25 -16 12 -19 0
-20 10 -16 0
-17 16 11 5 0
18 -1 16 -5 21 -25 0
-16 -22 19 0
18 -9 -24 0
-9 12 -21 3 -20 -24 0
20 -15 -7 0
4 17 -23 12 -15 -20 0
-18 -2 4 0
-20 -3 -2 0
-19 -16 -21 -24 -6 14 0
26 19 2 -21 0
-6 16 -25 20 -7 23 0
25 -16 -18 11 20 10 0
15 12 -17 0
-4 12 -1 -20 0
-18 -2 24 -23 10 -15 0
-16 -19 0
-17 -10 -3 21 0
-9 -8 19 0
20 14 -18 0
22 -6 19 17 0
-4 -23 -11 24 19 0
19 -8 -12 0
14 -7 6 0
23 19 7 -22 -1 0
11 24 5 23 -19 -21 0
19 13 -7 0
-2 15 -11 -19 -26 4 -16 -22 24 17 10 0
-16 -17 14 19 -7 0
-25 -3 7 0
23 18 -8 0
14 11 15 0
15 3 5 0
-25 -14 4 0
-20 -7 1 0
-22 6 15 -12 -13 0
-24 7 -22 -19 18 -3 -2 0
4 1 13 -2 0
-5 25 20 6 0
3 5 19 -21 14 18 0
23 11 15 0
8 4 -14 0
26 -25 23 15 -7 -2 0
11 -10 22 -3 -2 0
-20 -5 9 0
4 2 -16 -10 -7 12 0
-2 3 -20 0
-7 6 13 -17 26 -8 -14 0
-21 -5 9 -14 0
4 14 9 18 -12 -2 0
-8 15 22 0
-8 -7 -14 0
20 9 -16 10 18 13 -25 6 0
-18 -22 -19 -13 -15 -4 0
-14 8 -26 7 -10 19 21 4 -15 0
20 -15 6 -11 0
3 26 -20 -25 2 7 21 11 0
-22 18 -11 -4 16 -26 -24 -14 0
-13 22 10 -20 0
-1 19 4 0
23 5 1 0
-17 22 -2 -23 -6 21 0
5 3 12 0
15 3 -4 0
13 5 7 9 18 25 21 0
17 26 -32 0
28 25 -40 0
-33 -22 14 -39 0
30 24 -34 0
-23 -27 -30 0
1 -17 41 -37 -31 0
31 34 -25 -14 39 27 -36 0
37 29 15 12 -1 0
36 40 -28 38 20 -7 3 -23 32 -22 0
-25 33 -38 -20 -35 -41 0
-22 -13 -18 35 -19 0
-29 -20 28 -31 35 0
-9 -36 41 0
-4 -38 -15 22 -13 28 0
-40 -26 3 0
-37 36 -8 40 0
13 40 4 -36 0
-3 -1 27 15 0
-7 8 -36 0
37 32 0
36 -13 -31 0
-32 35 34 0
-40 27 26 -37 33 0
-17 -18 -28 0
-32 4 -31 28 0
7 13 -24 -39 0
5 -11 16 0
23 8 22 -10 0
35 39 27 0
34 37 36 24 -33 -17 0
14 -2 -39 -5 11 0
-35 14 -19 -18 33 -21 -29 0
20 33 -24 0
-31 11 39 24 10 0
-6 -39 -19 0
-33 -17 -4 34 16 19 -13 0
33 -2 0
-8 -17 7 35 -38 24 0
34 15 17 19 -27 -39 0
33 34 -19 -35 0
38 -29 34 -36 0
-32 33 -40 39 -10 21 -37 -16 -28 0
29 -28 -33 0
8 39 -6 0
-25 24 16 -2 28 0
18 -27 -16 0
-41 26 27 25 2 -11 -3 -7 -6 0
-12 33 -25 0
-27 -36 11 33 -7 18 5 -39 -40 -1 8 0
12 27 -23 33 16 35 40 -34 1 0
29 14 -37 0
-39 23 27 28 25 36 35 -22 0
-1 -37 -31 0
-27 2 36 -12 -39 -11 34 0
11 40 -35 0
27 -28 4 19 18 -31 -39 0
-17 41 24 27 8 30 15 0
-30 -36 -35 -31 -34 0
10 7 24 32 -18 -6 -39 -34 -17 -14 -40 0
22 -27 23 0
22 36 25 31 21 0
4 -38 22 32 31 0
20 -35 33 40 0
39 -27 38 -34 0
-40 -36 -38 0
32 -38 30 -24 0
-24 -2 27 0
28 33 -24 -18 6 0
-27 -15 33 -40 0
-34 29 2 0
25 -26 5 28 -11 -37 0
-17 -3 -19 0
-9 11 30 39 0
10 -41 -39 6 0
33 28 -34 -17 -20 -15 0
-37 20 -41 -33 -38 -15 40 -39 -29 35 0
-40 32 4 5 -22 0
-30 -6 5 -20 -27 0
-37 -13 -38 0
-7 -25 -36 0
24 23 -40 6 -25 -33 -19 20 -36 0
-35 -25 -41 0
-38 35 30 28 31 0
-38 19 -37 -4 -25 -36 0
33 -14 26 -35 0
-37 5 26 -25 -34 29 0
41 -18 28 0
